0000000000000000
0111111111111100
0111111111111100
0000011111111100
0000000111111100
0000000001111100
0000000000011100
0001111100011100
0000011100011100
0000011100001100
0000001100001100
0000000000000000
0000000000000000
0000000000000000
0000000000000000
0000000000000000